; benchmark generated from python API
(set-info :status unknown)
(declare-fun n () Int)
(declare-fun t_b (Int) Bool)
(declare-fun t_a (Int) Bool)
(declare-fun h_a (Int) Int)
(declare-fun h_b (Int) Int)
(assert
 (= n 40))
(assert
 (let (($x1165 (t_b 1)))
 (let (($x1161 (t_a 1)))
 (or $x1161 $x1165))))
(assert
 (let (($x1155 (t_b 2)))
 (let (($x1159 (t_a 2)))
 (or $x1159 $x1155))))
(assert
 (let (($x1143 (t_b 3)))
 (let (($x1147 (t_a 3)))
 (or $x1147 $x1143))))
(assert
 (let (($x1131 (t_b 4)))
 (let (($x1129 (t_a 4)))
 (or $x1129 $x1131))))
(assert
 (let (($x554 (t_b 5)))
 (let (($x578 (t_a 5)))
 (or $x578 $x554))))
(assert
 (let (($x253 (t_b 6)))
 (let (($x181 (t_a 6)))
 (or $x181 $x253))))
(assert
 (let (($x199 (t_b 7)))
 (let (($x530 (t_a 7)))
 (or $x530 $x199))))
(assert
 (let (($x544 (t_b 8)))
 (let (($x540 (t_a 8)))
 (or $x540 $x544))))
(assert
 (let (($x1152 (t_b 9)))
 (let (($x1144 (t_a 9)))
 (or $x1144 $x1152))))
(assert
 (let (($x791 (t_b 10)))
 (let (($x1127 (t_a 10)))
 (or $x1127 $x791))))
(assert
 (let (($x914 (t_b 11)))
 (let (($x1112 (t_a 11)))
 (or $x1112 $x914))))
(assert
 (let (($x917 (t_b 12)))
 (let (($x916 (t_a 12)))
 (or $x916 $x917))))
(assert
 (let (($x909 (t_b 13)))
 (let (($x702 (t_a 13)))
 (or $x702 $x909))))
(assert
 (let (($x911 (t_b 14)))
 (let (($x910 (t_a 14)))
 (or $x910 $x911))))
(assert
 (let (($x904 (t_b 15)))
 (let (($x711 (t_a 15)))
 (or $x711 $x904))))
(assert
 (let (($x108 (t_b 16)))
 (let (($x906 (t_a 16)))
 (or $x906 $x108))))
(assert
 (let (($x900 (t_b 17)))
 (let (($x525 (t_a 17)))
 (or $x525 $x900))))
(assert
 (let (($x894 (t_b 18)))
 (let (($x731 (t_a 18)))
 (or $x731 $x894))))
(assert
 (let (($x149 (t_b 19)))
 (let (($x896 (t_a 19)))
 (or $x896 $x149))))
(assert
 (let (($x890 (t_b 20)))
 (let (($x529 (t_a 20)))
 (or $x529 $x890))))
(assert
 (let (($x884 (t_b 21)))
 (let (($x10 (t_a 21)))
 (or $x10 $x884))))
(assert
 (let (($x173 (t_b 22)))
 (let (($x886 (t_a 22)))
 (or $x886 $x173))))
(assert
 (let (($x880 (t_b 23)))
 (let (($x208 (t_a 23)))
 (or $x208 $x880))))
(assert
 (let (($x874 (t_b 24)))
 (let (($x117 (t_a 24)))
 (or $x117 $x874))))
(assert
 (let (($x212 (t_b 25)))
 (let (($x876 (t_a 25)))
 (or $x876 $x212))))
(assert
 (let (($x870 (t_b 26)))
 (let (($x545 (t_a 26)))
 (or $x545 $x870))))
(assert
 (let (($x864 (t_b 27)))
 (let (($x152 (t_a 27)))
 (or $x152 $x864))))
(assert
 (let (($x236 (t_b 28)))
 (let (($x866 (t_a 28)))
 (or $x866 $x236))))
(assert
 (let (($x860 (t_b 29)))
 (let (($x549 (t_a 29)))
 (or $x549 $x860))))
(assert
 (let (($x854 (t_b 30)))
 (let (($x196 (t_a 30)))
 (or $x196 $x854))))
(assert
 (let (($x274 (t_b 31)))
 (let (($x856 (t_a 31)))
 (or $x856 $x274))))
(assert
 (let (($x850 (t_b 32)))
 (let (($x244 (t_a 32)))
 (or $x244 $x850))))
(assert
 (let (($x844 (t_b 33)))
 (let (($x233 (t_a 33)))
 (or $x233 $x844))))
(assert
 (let (($x315 (t_b 34)))
 (let (($x846 (t_a 34)))
 (or $x846 $x315))))
(assert
 (let (($x840 (t_b 35)))
 (let (($x565 (t_a 35)))
 (or $x565 $x840))))
(assert
 (let (($x834 (t_b 36)))
 (let (($x277 (t_a 36)))
 (or $x277 $x834))))
(assert
 (let (($x349 (t_b 37)))
 (let (($x836 (t_a 37)))
 (or $x836 $x349))))
(assert
 (let (($x830 (t_b 38)))
 (let (($x106 (t_a 38)))
 (or $x106 $x830))))
(assert
 (let (($x824 (t_b 39)))
 (let (($x319 (t_a 39)))
 (or $x319 $x824))))
(assert
 (let (($x826 (t_b 40)))
 (let (($x825 (t_a 40)))
 (or $x825 $x826))))
(assert
 (let ((?x1162 (h_a 1)))
 (= 0 ?x1162)))
(assert
 (let ((?x1162 (h_a 1)))
 (let ((?x1164 (h_a 2)))
 (let (($x575 (= ?x1164 ?x1162)))
 (let (($x1161 (t_a 1)))
 (ite $x1161 (= ?x1164 (+ ?x1162 1)) $x575))))))
(assert
 (let ((?x1164 (h_a 2)))
 (let ((?x814 (h_a 3)))
 (let (($x380 (= ?x814 ?x1164)))
 (let (($x1159 (t_a 2)))
 (ite $x1159 (= ?x814 (+ ?x1164 1)) $x380))))))
(assert
 (let ((?x814 (h_a 3)))
 (let ((?x459 (h_a 4)))
 (let (($x755 (= ?x459 ?x814)))
 (let (($x1147 (t_a 3)))
 (ite $x1147 (= ?x459 (+ ?x814 1)) $x755))))))
(assert
 (let ((?x459 (h_a 4)))
 (let ((?x763 (h_a 5)))
 (let (($x35 (= ?x763 ?x459)))
 (let (($x1129 (t_a 4)))
 (ite $x1129 (= ?x763 (+ ?x459 1)) $x35))))))
(assert
 (let ((?x763 (h_a 5)))
 (let ((?x795 (h_a 6)))
 (let (($x764 (= ?x795 ?x763)))
 (let (($x578 (t_a 5)))
 (ite $x578 (= ?x795 (+ ?x763 1)) $x764))))))
(assert
 (let ((?x795 (h_a 6)))
 (let ((?x762 (h_a 7)))
 (let (($x329 (= ?x762 ?x795)))
 (let (($x181 (t_a 6)))
 (ite $x181 (= ?x762 (+ ?x795 1)) $x329))))))
(assert
 (let ((?x762 (h_a 7)))
 (let ((?x1085 (h_a 8)))
 (let (($x1092 (= ?x1085 ?x762)))
 (let (($x530 (t_a 7)))
 (ite $x530 (= ?x1085 (+ ?x762 1)) $x1092))))))
(assert
 (let ((?x1085 (h_a 8)))
 (let ((?x774 (h_a 9)))
 (let (($x1095 (= ?x774 ?x1085)))
 (let (($x540 (t_a 8)))
 (ite $x540 (= ?x774 (+ ?x1085 1)) $x1095))))))
(assert
 (let ((?x774 (h_a 9)))
 (let ((?x1101 (h_a 10)))
 (let (($x1110 (= ?x1101 ?x774)))
 (let (($x1144 (t_a 9)))
 (ite $x1144 (= ?x1101 (+ ?x774 1)) $x1110))))))
(assert
 (let ((?x1101 (h_a 10)))
 (let ((?x641 (h_a 11)))
 (let (($x708 (= ?x641 ?x1101)))
 (let (($x1127 (t_a 10)))
 (ite $x1127 (= ?x641 (+ ?x1101 1)) $x708))))))
(assert
 (let ((?x641 (h_a 11)))
 (let ((?x715 (h_a 12)))
 (let (($x724 (= ?x715 ?x641)))
 (let (($x1112 (t_a 11)))
 (ite $x1112 (= ?x715 (+ ?x641 1)) $x724))))))
(assert
 (let ((?x715 (h_a 12)))
 (let ((?x733 (h_a 13)))
 (let (($x743 (= ?x733 ?x715)))
 (let (($x916 (t_a 12)))
 (ite $x916 (= ?x733 (+ ?x715 1)) $x743))))))
(assert
 (let ((?x733 (h_a 13)))
 (let ((?x109 (h_a 14)))
 (let (($x133 (= ?x109 ?x733)))
 (let (($x702 (t_a 13)))
 (ite $x702 (= ?x109 (+ ?x733 1)) $x133))))))
(assert
 (let ((?x109 (h_a 14)))
 (let ((?x151 (h_a 15)))
 (let (($x170 (= ?x151 ?x109)))
 (let (($x910 (t_a 14)))
 (ite $x910 (= ?x151 (+ ?x109 1)) $x170))))))
(assert
 (let ((?x151 (h_a 15)))
 (let ((?x195 (h_a 16)))
 (let (($x213 (= ?x195 ?x151)))
 (let (($x711 (t_a 15)))
 (ite $x711 (= ?x195 (+ ?x151 1)) $x213))))))
(assert
 (let ((?x195 (h_a 16)))
 (let ((?x224 (h_a 17)))
 (let (($x250 (= ?x224 ?x195)))
 (let (($x906 (t_a 16)))
 (ite $x906 (= ?x224 (+ ?x195 1)) $x250))))))
(assert
 (let ((?x224 (h_a 17)))
 (let ((?x298 (h_a 18)))
 (let (($x289 (= ?x298 ?x224)))
 (let (($x525 (t_a 17)))
 (ite $x525 (= ?x298 (+ ?x224 1)) $x289))))))
(assert
 (let ((?x298 (h_a 18)))
 (let ((?x335 (h_a 19)))
 (let (($x354 (= ?x335 ?x298)))
 (let (($x731 (t_a 18)))
 (ite $x731 (= ?x335 (+ ?x298 1)) $x354))))))
(assert
 (let ((?x335 (h_a 19)))
 (let ((?x373 (h_a 20)))
 (let (($x397 (= ?x373 ?x335)))
 (let (($x896 (t_a 19)))
 (ite $x896 (= ?x373 (+ ?x335 1)) $x397))))))
(assert
 (let ((?x373 (h_a 20)))
 (let ((?x408 (h_a 21)))
 (let (($x434 (= ?x408 ?x373)))
 (let (($x529 (t_a 20)))
 (ite $x529 (= ?x408 (+ ?x373 1)) $x434))))))
(assert
 (let ((?x408 (h_a 21)))
 (let ((?x478 (h_a 22)))
 (let (($x472 (= ?x478 ?x408)))
 (let (($x10 (t_a 21)))
 (ite $x10 (= ?x478 (+ ?x408 1)) $x472))))))
(assert
 (let ((?x478 (h_a 22)))
 (let ((?x517 (h_a 23)))
 (let (($x542 (= ?x517 ?x478)))
 (let (($x886 (t_a 22)))
 (ite $x886 (= ?x517 (+ ?x478 1)) $x542))))))
(assert
 (let ((?x517 (h_a 23)))
 (let ((?x572 (h_a 24)))
 (let (($x568 (= ?x572 ?x517)))
 (let (($x208 (t_a 23)))
 (ite $x208 (= ?x572 (+ ?x517 1)) $x568))))))
(assert
 (let ((?x572 (h_a 24)))
 (let ((?x71 (h_a 25)))
 (let (($x80 (= ?x71 ?x572)))
 (let (($x117 (t_a 24)))
 (ite $x117 (= ?x71 (+ ?x572 1)) $x80))))))
(assert
 (let ((?x71 (h_a 25)))
 (let ((?x112 (h_a 26)))
 (let (($x131 (= ?x112 ?x71)))
 (let (($x876 (t_a 25)))
 (ite $x876 (= ?x112 (+ ?x71 1)) $x131))))))
(assert
 (let ((?x112 (h_a 26)))
 (let ((?x79 (h_a 27)))
 (let (($x541 (= ?x79 ?x112)))
 (let (($x545 (t_a 26)))
 (ite $x545 (= ?x79 (+ ?x112 1)) $x541))))))
(assert
 (let ((?x79 (h_a 27)))
 (let ((?x401 (h_a 28)))
 (let (($x176 (= ?x401 ?x79)))
 (let (($x152 (t_a 27)))
 (ite $x152 (= ?x401 (+ ?x79 1)) $x176))))))
(assert
 (let ((?x401 (h_a 28)))
 (let ((?x62 (h_a 29)))
 (let (($x200 (= ?x62 ?x401)))
 (let (($x866 (t_a 28)))
 (ite $x866 (= ?x62 (+ ?x401 1)) $x200))))))
(assert
 (let ((?x62 (h_a 29)))
 (let ((?x219 (h_a 30)))
 (let (($x95 (= ?x219 ?x62)))
 (let (($x549 (t_a 29)))
 (ite $x549 (= ?x219 (+ ?x62 1)) $x95))))))
(assert
 (let ((?x219 (h_a 30)))
 (let ((?x82 (h_a 31)))
 (let (($x245 (= ?x82 ?x219)))
 (let (($x196 (t_a 30)))
 (ite $x196 (= ?x82 (+ ?x219 1)) $x245))))))
(assert
 (let ((?x82 (h_a 31)))
 (let ((?x264 (h_a 32)))
 (let (($x282 (= ?x264 ?x82)))
 (let (($x856 (t_a 31)))
 (ite $x856 (= ?x264 (+ ?x82 1)) $x282))))))
(assert
 (let ((?x264 (h_a 32)))
 (let ((?x303 (h_a 33)))
 (let (($x333 (= ?x303 ?x264)))
 (let (($x244 (t_a 32)))
 (ite $x244 (= ?x303 (+ ?x264 1)) $x333))))))
(assert
 (let ((?x303 (h_a 33)))
 (let ((?x351 (h_a 34)))
 (let (($x574 (= ?x351 ?x303)))
 (let (($x233 (t_a 33)))
 (ite $x233 (= ?x351 (+ ?x303 1)) $x574))))))
(assert
 (let ((?x351 (h_a 34)))
 (let ((?x384 (h_a 35)))
 (let (($x387 (= ?x384 ?x351)))
 (let (($x846 (t_a 34)))
 (ite $x846 (= ?x384 (+ ?x351 1)) $x387))))))
(assert
 (let ((?x384 (h_a 35)))
 (let ((?x757 (h_a 36)))
 (let (($x420 (= ?x757 ?x384)))
 (let (($x565 (t_a 35)))
 (ite $x565 (= ?x757 (+ ?x384 1)) $x420))))))
(assert
 (let ((?x757 (h_a 36)))
 (let ((?x439 (h_a 37)))
 (let (($x467 (= ?x439 ?x757)))
 (let (($x277 (t_a 36)))
 (ite $x277 (= ?x439 (+ ?x757 1)) $x467))))))
(assert
 (let ((?x439 (h_a 37)))
 (let ((?x481 (h_a 38)))
 (let (($x758 (= ?x481 ?x439)))
 (let (($x836 (t_a 37)))
 (ite $x836 (= ?x481 (+ ?x439 1)) $x758))))))
(assert
 (let ((?x481 (h_a 38)))
 (let ((?x486 (h_a 39)))
 (let (($x489 (= ?x486 ?x481)))
 (let (($x106 (t_a 38)))
 (ite $x106 (= ?x486 (+ ?x481 1)) $x489))))))
(assert
 (let ((?x486 (h_a 39)))
 (let ((?x748 (h_a 40)))
 (let (($x338 (= ?x748 ?x486)))
 (let (($x319 (t_a 39)))
 (ite $x319 (= ?x748 (+ ?x486 1)) $x338))))))
(assert
 (let ((?x748 (h_a 40)))
 (let ((?x777 (h_a 41)))
 (let (($x526 (= ?x777 ?x748)))
 (let (($x825 (t_a 40)))
 (ite $x825 (= ?x777 (+ ?x748 1)) $x526))))))
(assert
 (let ((?x546 (h_b 1)))
 (= 0 ?x546)))
(assert
 (let ((?x546 (h_b 1)))
 (let ((?x91 (h_b 2)))
 (let (($x566 (= ?x91 ?x546)))
 (let (($x1165 (t_b 1)))
 (ite $x1165 (= ?x91 (+ ?x546 1)) $x566))))))
(assert
 (let ((?x91 (h_b 2)))
 (let ((?x97 (h_b 3)))
 (let (($x769 (= ?x97 ?x91)))
 (let (($x1155 (t_b 2)))
 (ite $x1155 (= ?x97 (+ ?x91 1)) $x769))))))
(assert
 (let ((?x97 (h_b 3)))
 (let ((?x754 (h_b 4)))
 (let (($x918 (= ?x754 ?x97)))
 (let (($x1143 (t_b 3)))
 (ite $x1143 (= ?x754 (+ ?x97 1)) $x918))))))
(assert
 (let ((?x754 (h_b 4)))
 (let ((?x902 (h_b 5)))
 (let (($x898 (= ?x902 ?x754)))
 (let (($x1131 (t_b 4)))
 (ite $x1131 (= ?x902 (+ ?x754 1)) $x898))))))
(assert
 (let ((?x902 (h_b 5)))
 (let ((?x883 (h_b 6)))
 (let (($x872 (= ?x883 ?x902)))
 (let (($x554 (t_b 5)))
 (ite $x554 (= ?x883 (+ ?x902 1)) $x872))))))
(assert
 (let ((?x883 (h_b 6)))
 (let ((?x863 (h_b 7)))
 (let (($x852 (= ?x863 ?x883)))
 (let (($x253 (t_b 6)))
 (ite $x253 (= ?x863 (+ ?x883 1)) $x852))))))
(assert
 (let ((?x863 (h_b 7)))
 (let ((?x837 (h_b 8)))
 (let (($x833 (= ?x837 ?x863)))
 (let (($x199 (t_b 7)))
 (ite $x199 (= ?x837 (+ ?x863 1)) $x833))))))
(assert
 (let ((?x837 (h_b 8)))
 (let ((?x818 (h_b 9)))
 (let (($x807 (= ?x818 ?x837)))
 (let (($x544 (t_b 8)))
 (ite $x544 (= ?x818 (+ ?x837 1)) $x807))))))
(assert
 (let ((?x818 (h_b 9)))
 (let ((?x792 (h_b 10)))
 (let (($x1078 (= ?x792 ?x818)))
 (let (($x1152 (t_b 9)))
 (ite $x1152 (= ?x792 (+ ?x818 1)) $x1078))))))
(assert
 (let ((?x792 (h_b 10)))
 (let ((?x1093 (h_b 11)))
 (let (($x163 (= ?x1093 ?x792)))
 (let (($x791 (t_b 10)))
 (ite $x791 (= ?x1093 (+ ?x792 1)) $x163))))))
(assert
 (let ((?x1093 (h_b 11)))
 (let ((?x1107 (h_b 12)))
 (let (($x705 (= ?x1107 ?x1093)))
 (let (($x914 (t_b 11)))
 (ite $x914 (= ?x1107 (+ ?x1093 1)) $x705))))))
(assert
 (let ((?x1107 (h_b 12)))
 (let ((?x713 (h_b 13)))
 (let (($x721 (= ?x713 ?x1107)))
 (let (($x917 (t_b 12)))
 (ite $x917 (= ?x713 (+ ?x1107 1)) $x721))))))
(assert
 (let ((?x713 (h_b 13)))
 (let ((?x732 (h_b 14)))
 (let (($x738 (= ?x732 ?x713)))
 (let (($x909 (t_b 13)))
 (ite $x909 (= ?x732 (+ ?x713 1)) $x738))))))
(assert
 (let ((?x732 (h_b 14)))
 (let ((?x11 (h_b 15)))
 (let (($x24 (= ?x11 ?x732)))
 (let (($x911 (t_b 14)))
 (ite $x911 (= ?x11 (+ ?x732 1)) $x24))))))
(assert
 (let ((?x11 (h_b 15)))
 (let ((?x142 (h_b 16)))
 (let (($x144 (= ?x142 ?x11)))
 (let (($x904 (t_b 15)))
 (ite $x904 (= ?x142 (+ ?x11 1)) $x144))))))
(assert
 (let ((?x142 (h_b 16)))
 (let ((?x161 (h_b 17)))
 (let (($x204 (= ?x161 ?x142)))
 (let (($x108 (t_b 16)))
 (ite $x108 (= ?x161 (+ ?x142 1)) $x204))))))
(assert
 (let ((?x161 (h_b 17)))
 (let ((?x215 (h_b 18)))
 (let (($x241 (= ?x215 ?x161)))
 (let (($x900 (t_b 17)))
 (ite $x900 (= ?x215 (+ ?x161 1)) $x241))))))
(assert
 (let ((?x215 (h_b 18)))
 (let ((?x267 (h_b 19)))
 (let (($x279 (= ?x267 ?x215)))
 (let (($x894 (t_b 18)))
 (ite $x894 (= ?x267 (+ ?x215 1)) $x279))))))
(assert
 (let ((?x267 (h_b 19)))
 (let ((?x326 (h_b 20)))
 (let (($x328 (= ?x326 ?x267)))
 (let (($x149 (t_b 19)))
 (ite $x149 (= ?x326 (+ ?x267 1)) $x328))))))
(assert
 (let ((?x326 (h_b 20)))
 (let ((?x364 (h_b 21)))
 (let (($x388 (= ?x364 ?x326)))
 (let (($x890 (t_b 20)))
 (ite $x890 (= ?x364 (+ ?x326 1)) $x388))))))
(assert
 (let ((?x364 (h_b 21)))
 (let ((?x399 (h_b 22)))
 (let (($x425 (= ?x399 ?x364)))
 (let (($x884 (t_b 21)))
 (ite $x884 (= ?x399 (+ ?x364 1)) $x425))))))
(assert
 (let ((?x399 (h_b 22)))
 (let ((?x451 (h_b 23)))
 (let (($x463 (= ?x451 ?x399)))
 (let (($x173 (t_b 22)))
 (ite $x173 (= ?x451 (+ ?x399 1)) $x463))))))
(assert
 (let ((?x451 (h_b 23)))
 (let ((?x507 (h_b 24)))
 (let (($x513 (= ?x507 ?x451)))
 (let (($x880 (t_b 23)))
 (ite $x880 (= ?x507 (+ ?x451 1)) $x513))))))
(assert
 (let ((?x507 (h_b 24)))
 (let ((?x558 (h_b 25)))
 (let (($x562 (= ?x558 ?x507)))
 (let (($x874 (t_b 24)))
 (ite $x874 (= ?x558 (+ ?x507 1)) $x562))))))
(assert
 (let ((?x558 (h_b 25)))
 (let ((?x64 (h_b 26)))
 (let (($x104 (= ?x64 ?x558)))
 (let (($x212 (t_b 25)))
 (ite $x212 (= ?x64 (+ ?x558 1)) $x104))))))
(assert
 (let ((?x64 (h_b 26)))
 (let ((?x122 (h_b 27)))
 (let (($x130 (= ?x122 ?x64)))
 (let (($x870 (t_b 26)))
 (ite $x870 (= ?x122 (+ ?x64 1)) $x130))))))
(assert
 (let ((?x122 (h_b 27)))
 (let ((?x147 (h_b 28)))
 (let (($x167 (= ?x147 ?x122)))
 (let (($x864 (t_b 27)))
 (ite $x864 (= ?x147 (+ ?x122 1)) $x167))))))
(assert
 (let ((?x147 (h_b 28)))
 (let ((?x193 (h_b 29)))
 (let (($x209 (= ?x193 ?x147)))
 (let (($x236 (t_b 28)))
 (ite $x236 (= ?x193 (+ ?x147 1)) $x209))))))
(assert
 (let ((?x193 (h_b 29)))
 (let ((?x230 (h_b 30)))
 (let (($x248 (= ?x230 ?x193)))
 (let (($x860 (t_b 29)))
 (ite $x860 (= ?x230 (+ ?x193 1)) $x248))))))
(assert
 (let ((?x230 (h_b 30)))
 (let ((?x265 (h_b 31)))
 (let (($x273 (= ?x265 ?x230)))
 (let (($x854 (t_b 30)))
 (ite $x854 (= ?x265 (+ ?x230 1)) $x273))))))
(assert
 (let ((?x265 (h_b 31)))
 (let ((?x312 (h_b 32)))
 (let (($x324 (= ?x312 ?x265)))
 (let (($x274 (t_b 31)))
 (ite $x274 (= ?x312 (+ ?x265 1)) $x324))))))
(assert
 (let ((?x312 (h_b 32)))
 (let ((?x360 (h_b 33)))
 (let (($x376 (= ?x360 ?x312)))
 (let (($x850 (t_b 32)))
 (ite $x850 (= ?x360 (+ ?x312 1)) $x376))))))
(assert
 (let ((?x360 (h_b 33)))
 (let ((?x395 (h_b 34)))
 (let (($x411 (= ?x395 ?x360)))
 (let (($x844 (t_b 33)))
 (ite $x844 (= ?x395 (+ ?x360 1)) $x411))))))
(assert
 (let ((?x395 (h_b 34)))
 (let ((?x440 (h_b 35)))
 (let (($x457 (= ?x440 ?x395)))
 (let (($x315 (t_b 34)))
 (ite $x315 (= ?x440 (+ ?x395 1)) $x457))))))
(assert
 (let ((?x440 (h_b 35)))
 (let ((?x292 (h_b 36)))
 (let (($x300 (= ?x292 ?x440)))
 (let (($x840 (t_b 35)))
 (ite $x840 (= ?x292 (+ ?x440 1)) $x300))))))
(assert
 (let ((?x292 (h_b 36)))
 (let ((?x47 (h_b 37)))
 (let (($x506 (= ?x47 ?x292)))
 (let (($x834 (t_b 36)))
 (ite $x834 (= ?x47 (+ ?x292 1)) $x506))))))
(assert
 (let ((?x47 (h_b 37)))
 (let ((?x516 (h_b 38)))
 (let (($x778 (= ?x516 ?x47)))
 (let (($x349 (t_b 37)))
 (ite $x349 (= ?x516 (+ ?x47 1)) $x778))))))
(assert
 (let ((?x516 (h_b 38)))
 (let ((?x790 (h_b 39)))
 (let (($x782 (= ?x790 ?x516)))
 (let (($x830 (t_b 38)))
 (ite $x830 (= ?x790 (+ ?x516 1)) $x782))))))
(assert
 (let ((?x790 (h_b 39)))
 (let ((?x1134 (h_b 40)))
 (let (($x1138 (= ?x1134 ?x790)))
 (let (($x824 (t_b 39)))
 (ite $x824 (= ?x1134 (+ ?x790 1)) $x1138))))))
(assert
 (let ((?x1134 (h_b 40)))
 (let ((?x1121 (h_b 41)))
 (let (($x1118 (= ?x1121 ?x1134)))
 (let (($x826 (t_b 40)))
 (ite $x826 (= ?x1121 (+ ?x1134 1)) $x1118))))))
(assert
 (let (($x1165 (t_b 1)))
 (let (($x586 (not $x1165)))
 (let ((?x546 (h_b 1)))
 (let ((?x1162 (h_a 1)))
 (let (($x587 (= ?x1162 ?x546)))
 (=> $x587 $x586)))))))
(assert
 (let (($x1155 (t_b 2)))
 (let (($x589 (not $x1155)))
 (let ((?x91 (h_b 2)))
 (let ((?x1164 (h_a 2)))
 (let (($x590 (= ?x1164 ?x91)))
 (=> $x590 $x589)))))))
(assert
 (let (($x1143 (t_b 3)))
 (let (($x591 (not $x1143)))
 (let ((?x97 (h_b 3)))
 (let ((?x814 (h_a 3)))
 (let (($x596 (= ?x814 ?x97)))
 (=> $x596 $x591)))))))
(assert
 (let (($x1131 (t_b 4)))
 (let (($x602 (not $x1131)))
 (let ((?x754 (h_b 4)))
 (let ((?x459 (h_a 4)))
 (let (($x598 (= ?x459 ?x754)))
 (=> $x598 $x602)))))))
(assert
 (let (($x554 (t_b 5)))
 (let (($x604 (not $x554)))
 (let ((?x902 (h_b 5)))
 (let ((?x763 (h_a 5)))
 (let (($x600 (= ?x763 ?x902)))
 (=> $x600 $x604)))))))
(assert
 (let (($x253 (t_b 6)))
 (let (($x606 (not $x253)))
 (let ((?x883 (h_b 6)))
 (let ((?x795 (h_a 6)))
 (let (($x611 (= ?x795 ?x883)))
 (=> $x611 $x606)))))))
(assert
 (let (($x199 (t_b 7)))
 (let (($x617 (not $x199)))
 (let ((?x863 (h_b 7)))
 (let ((?x762 (h_a 7)))
 (let (($x613 (= ?x762 ?x863)))
 (=> $x613 $x617)))))))
(assert
 (let (($x544 (t_b 8)))
 (let (($x619 (not $x544)))
 (let ((?x837 (h_b 8)))
 (let ((?x1085 (h_a 8)))
 (let (($x615 (= ?x1085 ?x837)))
 (=> $x615 $x619)))))))
(assert
 (let (($x1152 (t_b 9)))
 (let (($x621 (not $x1152)))
 (let ((?x818 (h_b 9)))
 (let ((?x774 (h_a 9)))
 (let (($x626 (= ?x774 ?x818)))
 (=> $x626 $x621)))))))
(assert
 (let (($x791 (t_b 10)))
 (let (($x632 (not $x791)))
 (let ((?x792 (h_b 10)))
 (let ((?x1101 (h_a 10)))
 (let (($x628 (= ?x1101 ?x792)))
 (=> $x628 $x632)))))))
(assert
 (let (($x914 (t_b 11)))
 (let (($x634 (not $x914)))
 (let ((?x1093 (h_b 11)))
 (let ((?x641 (h_a 11)))
 (let (($x630 (= ?x641 ?x1093)))
 (=> $x630 $x634)))))))
(assert
 (let (($x917 (t_b 12)))
 (let (($x636 (not $x917)))
 (let ((?x1107 (h_b 12)))
 (let ((?x715 (h_a 12)))
 (let (($x584 (= ?x715 ?x1107)))
 (=> $x584 $x636)))))))
(assert
 (let (($x909 (t_b 13)))
 (let (($x648 (not $x909)))
 (let ((?x713 (h_b 13)))
 (let ((?x733 (h_a 13)))
 (let (($x650 (= ?x733 ?x713)))
 (=> $x650 $x648)))))))
(assert
 (let (($x911 (t_b 14)))
 (let (($x656 (not $x911)))
 (let ((?x732 (h_b 14)))
 (let ((?x109 (h_a 14)))
 (let (($x652 (= ?x109 ?x732)))
 (=> $x652 $x656)))))))
(assert
 (let (($x904 (t_b 15)))
 (let (($x658 (not $x904)))
 (let ((?x11 (h_b 15)))
 (let ((?x151 (h_a 15)))
 (let (($x657 (= ?x151 ?x11)))
 (=> $x657 $x658)))))))
(assert
 (let (($x108 (t_b 16)))
 (let (($x663 (not $x108)))
 (let ((?x142 (h_b 16)))
 (let ((?x195 (h_a 16)))
 (let (($x665 (= ?x195 ?x142)))
 (=> $x665 $x663)))))))
(assert
 (let (($x900 (t_b 17)))
 (let (($x671 (not $x900)))
 (let ((?x161 (h_b 17)))
 (let ((?x224 (h_a 17)))
 (let (($x667 (= ?x224 ?x161)))
 (=> $x667 $x671)))))))
(assert
 (let (($x894 (t_b 18)))
 (let (($x673 (not $x894)))
 (let ((?x215 (h_b 18)))
 (let ((?x298 (h_a 18)))
 (let (($x1011 (= ?x298 ?x215)))
 (=> $x1011 $x673)))))))
(assert
 (let (($x149 (t_b 19)))
 (let (($x1014 (not $x149)))
 (let ((?x267 (h_b 19)))
 (let ((?x335 (h_a 19)))
 (let (($x672 (= ?x335 ?x267)))
 (=> $x672 $x1014)))))))
(assert
 (let (($x890 (t_b 20)))
 (let (($x1627 (not $x890)))
 (let ((?x326 (h_b 20)))
 (let ((?x373 (h_a 20)))
 (let (($x1628 (= ?x373 ?x326)))
 (=> $x1628 $x1627)))))))
(assert
 (let (($x884 (t_b 21)))
 (let (($x1622 (not $x884)))
 (let ((?x364 (h_b 21)))
 (let ((?x408 (h_a 21)))
 (let (($x1623 (= ?x408 ?x364)))
 (=> $x1623 $x1622)))))))
(assert
 (let (($x173 (t_b 22)))
 (let (($x1617 (not $x173)))
 (let ((?x399 (h_b 22)))
 (let ((?x478 (h_a 22)))
 (let (($x1618 (= ?x478 ?x399)))
 (=> $x1618 $x1617)))))))
(assert
 (let (($x880 (t_b 23)))
 (let (($x1612 (not $x880)))
 (let ((?x451 (h_b 23)))
 (let ((?x517 (h_a 23)))
 (let (($x1613 (= ?x517 ?x451)))
 (=> $x1613 $x1612)))))))
(assert
 (let (($x874 (t_b 24)))
 (let (($x1607 (not $x874)))
 (let ((?x507 (h_b 24)))
 (let ((?x572 (h_a 24)))
 (let (($x1608 (= ?x572 ?x507)))
 (=> $x1608 $x1607)))))))
(assert
 (let (($x212 (t_b 25)))
 (let (($x1602 (not $x212)))
 (let ((?x558 (h_b 25)))
 (let ((?x71 (h_a 25)))
 (let (($x1603 (= ?x71 ?x558)))
 (=> $x1603 $x1602)))))))
(assert
 (let (($x870 (t_b 26)))
 (let (($x1597 (not $x870)))
 (let ((?x64 (h_b 26)))
 (let ((?x112 (h_a 26)))
 (let (($x1598 (= ?x112 ?x64)))
 (=> $x1598 $x1597)))))))
(assert
 (let (($x864 (t_b 27)))
 (let (($x1592 (not $x864)))
 (let ((?x122 (h_b 27)))
 (let ((?x79 (h_a 27)))
 (let (($x1593 (= ?x79 ?x122)))
 (=> $x1593 $x1592)))))))
(assert
 (let (($x236 (t_b 28)))
 (let (($x1587 (not $x236)))
 (let ((?x147 (h_b 28)))
 (let ((?x401 (h_a 28)))
 (let (($x1588 (= ?x401 ?x147)))
 (=> $x1588 $x1587)))))))
(assert
 (let (($x860 (t_b 29)))
 (let (($x1582 (not $x860)))
 (let ((?x193 (h_b 29)))
 (let ((?x62 (h_a 29)))
 (let (($x1583 (= ?x62 ?x193)))
 (=> $x1583 $x1582)))))))
(assert
 (let (($x854 (t_b 30)))
 (let (($x1577 (not $x854)))
 (let ((?x230 (h_b 30)))
 (let ((?x219 (h_a 30)))
 (let (($x1578 (= ?x219 ?x230)))
 (=> $x1578 $x1577)))))))
(assert
 (let (($x274 (t_b 31)))
 (let (($x1572 (not $x274)))
 (let ((?x265 (h_b 31)))
 (let ((?x82 (h_a 31)))
 (let (($x1573 (= ?x82 ?x265)))
 (=> $x1573 $x1572)))))))
(assert
 (let (($x850 (t_b 32)))
 (let (($x1167 (not $x850)))
 (let ((?x312 (h_b 32)))
 (let ((?x264 (h_a 32)))
 (let (($x676 (= ?x264 ?x312)))
 (=> $x676 $x1167)))))))
(assert
 (let (($x844 (t_b 33)))
 (let (($x1172 (not $x844)))
 (let ((?x360 (h_b 33)))
 (let ((?x303 (h_a 33)))
 (let (($x1171 (= ?x303 ?x360)))
 (=> $x1171 $x1172)))))))
(assert
 (let (($x315 (t_b 34)))
 (let (($x1177 (not $x315)))
 (let ((?x395 (h_b 34)))
 (let ((?x351 (h_a 34)))
 (let (($x1176 (= ?x351 ?x395)))
 (=> $x1176 $x1177)))))))
(assert
 (let (($x840 (t_b 35)))
 (let (($x1182 (not $x840)))
 (let ((?x440 (h_b 35)))
 (let ((?x384 (h_a 35)))
 (let (($x1181 (= ?x384 ?x440)))
 (=> $x1181 $x1182)))))))
(assert
 (let (($x834 (t_b 36)))
 (let (($x1187 (not $x834)))
 (let ((?x292 (h_b 36)))
 (let ((?x757 (h_a 36)))
 (let (($x1186 (= ?x757 ?x292)))
 (=> $x1186 $x1187)))))))
(assert
 (let (($x349 (t_b 37)))
 (let (($x1192 (not $x349)))
 (let ((?x47 (h_b 37)))
 (let ((?x439 (h_a 37)))
 (let (($x1191 (= ?x439 ?x47)))
 (=> $x1191 $x1192)))))))
(assert
 (let (($x830 (t_b 38)))
 (let (($x1197 (not $x830)))
 (let ((?x516 (h_b 38)))
 (let ((?x481 (h_a 38)))
 (let (($x1196 (= ?x481 ?x516)))
 (=> $x1196 $x1197)))))))
(assert
 (let (($x824 (t_b 39)))
 (let (($x1202 (not $x824)))
 (let ((?x790 (h_b 39)))
 (let ((?x486 (h_a 39)))
 (let (($x1201 (= ?x486 ?x790)))
 (=> $x1201 $x1202)))))))
(assert
 (let (($x826 (t_b 40)))
 (let (($x1207 (not $x826)))
 (let ((?x1134 (h_b 40)))
 (let ((?x748 (h_a 40)))
 (let (($x1206 (= ?x748 ?x1134)))
 (=> $x1206 $x1207)))))))
(assert
 (let (($x1213 (not (t_b 41))))
 (let ((?x1121 (h_b 41)))
 (let ((?x777 (h_a 41)))
 (let (($x1211 (= ?x777 ?x1121)))
 (=> $x1211 $x1213))))))
(check-sat)
